c FILE /home/rafael/Documents/HappySet/MIHS/inputs/happygen/output/graph_d_regular_k20_p0.4_v100_20241127_084133.txt
c SOURCE This is a d-regular graph formed for the happy graph colouring problem.
c DESCRIPTION It was generated using the problem generator of Rhyd Lewis
c
c GRAPH STATS
c Seed                             = 1831606606
c Number of Nodes                  = 100
c Number of colours k              = 20
c Number of pre-assignments        = 40
c Degree of all vertices           = 6
c Density                          = 0.0606061
c 
c The degrees of nodes 1 to 100, respectively, are as follows 
c [6, 6, 6, 6, 6, 6, 6, 6, 6, 6, 6, 6, 6, 6, 6, 6, 6, 6, 6, 6, 6, 6, 6, 6, 6, 6, 
c  6, 6, 6, 6, 6, 6, 6, 6, 6, 6, 6, 6, 6, 6, 6, 6, 6, 6, 6, 6, 6, 6, 6, 6, 6, 
c  6, 6, 6, 6, 6, 6, 6, 6, 6, 6, 6, 6, 6, 6, 6, 6, 6, 6, 6, 6, 6, 6, 6, 6, 6, 
c  6, 6, 6, 6, 6, 6, 6, 6, 6, 6, 6, 6, 6, 6, 6, 6, 6, 6, 6, 6, 6, 6, 6, 6] 
c  
p edge 100 300 20
e 1 6
e 1 17
e 1 31
e 1 71
e 1 83
e 1 97
e 2 12
e 2 45
e 2 61
e 2 62
e 2 63
e 2 84
e 3 17
e 3 23
e 3 33
e 3 39
e 3 49
e 3 50
e 4 7
e 4 22
e 4 28
e 4 46
e 4 48
e 4 57
e 5 8
e 5 20
e 5 21
e 5 35
e 5 68
e 5 99
e 6 13
e 6 19
e 6 39
e 6 48
e 6 49
e 7 11
e 7 30
e 7 46
e 7 70
e 7 85
e 8 21
e 8 54
e 8 55
e 8 77
e 8 91
e 9 30
e 9 39
e 9 44
e 9 54
e 9 92
e 9 99
e 10 11
e 10 15
e 10 59
e 10 63
e 10 66
e 10 74
e 11 12
e 11 35
e 11 94
e 11 98
e 12 33
e 12 57
e 12 68
e 12 98
e 13 31
e 13 32
e 13 37
e 13 67
e 13 78
e 14 22
e 14 27
e 14 31
e 14 33
e 14 34
e 14 59
e 15 47
e 15 53
e 15 62
e 15 79
e 15 90
e 16 19
e 16 22
e 16 65
e 16 73
e 16 79
e 16 83
e 17 50
e 17 85
e 17 86
e 17 94
e 18 19
e 18 51
e 18 61
e 18 93
e 18 95
e 18 96
e 19 69
e 19 72
e 19 73
e 20 43
e 20 45
e 20 83
e 20 87
e 20 96
e 21 56
e 21 67
e 21 71
e 21 91
e 22 53
e 22 61
e 22 89
e 23 27
e 23 64
e 23 70
e 23 90
e 23 93
e 24 28
e 24 29
e 24 63
e 24 79
e 24 90
e 24 100
e 25 29
e 25 37
e 25 67
e 25 69
e 25 75
e 25 76
e 26 28
e 26 29
e 26 58
e 26 74
e 26 78
e 26 97
e 27 42
e 27 47
e 27 73
e 27 82
e 28 46
e 28 92
e 28 97
e 29 49
e 29 93
e 29 94
e 30 47
e 30 60
e 30 71
e 30 88
e 31 41
e 31 54
e 31 78
e 32 48
e 32 56
e 32 78
e 32 87
e 32 96
e 33 62
e 33 86
e 33 89
e 34 49
e 34 57
e 34 64
e 34 85
e 34 97
e 35 52
e 35 80
e 35 81
e 35 82
e 36 39
e 36 55
e 36 65
e 36 77
e 36 86
e 36 90
e 37 61
e 37 89
e 37 90
e 37 96
e 38 53
e 38 70
e 38 76
e 38 79
e 38 87
e 38 92
e 39 51
e 39 96
e 40 48
e 40 49
e 40 66
e 40 69
e 40 94
e 40 100
e 41 45
e 41 52
e 41 58
e 41 60
e 41 64
e 42 46
e 42 51
e 42 88
e 42 92
e 42 99
e 43 54
e 43 64
e 43 74
e 43 77
e 43 84
e 44 57
e 44 66
e 44 72
e 44 87
e 44 95
e 45 59
e 45 80
e 45 95
e 46 56
e 46 97
e 47 72
e 47 89
e 47 100
e 48 58
e 48 73
e 49 56
e 50 54
e 50 69
e 50 83
e 50 96
e 51 57
e 51 67
e 51 70
e 52 55
e 52 56
e 52 63
e 52 68
e 53 65
e 53 67
e 53 82
e 54 55
e 55 60
e 55 73
e 56 99
e 57 76
e 58 60
e 58 81
e 58 94
e 59 70
e 59 87
e 59 91
e 60 82
e 60 93
e 61 63
e 61 100
e 62 65
e 62 71
e 62 76
e 63 95
e 64 80
e 64 88
e 65 66
e 65 77
e 66 70
e 66 75
e 67 82
e 68 77
e 68 79
e 68 87
e 69 81
e 69 85
e 71 75
e 71 84
e 72 76
e 72 94
e 72 99
e 73 86
e 74 83
e 74 84
e 74 93
e 75 81
e 75 88
e 75 97
e 76 98
e 77 85
e 78 81
e 78 93
e 79 86
e 80 88
e 80 98
e 80 99
e 81 86
e 82 84
e 83 100
e 84 95
e 85 89
e 88 91
e 89 92
e 90 91
e 91 92
e 95 98
e 98 100
n 4 7
n 5 9
n 6 18
n 9 14
n 15 10
n 16 7
n 17 13
n 18 19
n 22 7
n 23 11
n 24 4
n 29 4
n 30 14
n 33 12
n 34 2
n 35 9
n 36 15
n 37 20
n 38 9
n 40 8
n 41 5
n 42 16
n 43 3
n 45 5
n 50 13
n 55 15
n 56 20
n 58 5
n 63 4
n 66 8
n 67 1
n 68 9
n 72 9
n 74 3
n 76 9
n 78 6
n 84 3
n 87 9
n 91 17
n 98 9
